Minimize
obj1:-8 x(1) +0 x(2) -10 x(3) +10 x(4) -16 x(5) +10 x(6) +13 x(7) +10 x(8) -7 x(9) +3 x(10) -1 x(11) -17 x(12) +13 x(13) +8 x(14) -10 x(15) +19 x(16) -13 x(17) -8 x(18) -4 x(19) -11 x(20)
Subject To
c1:+3 x(1) +19 x(2) +20 x(3) +18 x(4) +7 x(5) +17 x(6) +2 x(7) +13 x(8) +9 x(9) +2 x(10) +5 x(11) +9 x(12) +11 x(13) +11 x(14) +13 x(15) +13 x(16) +18 x(17) +16 x(18) +12 x(19) +14 x(20)  <=  83
c2:+12 x(1) +20 x(2) +15 x(3) +14 x(4) +14 x(5) +2 x(6) +8 x(7) +16 x(8) +20 x(9) +9 x(10) +10 x(11) +2 x(12) +8 x(13) +12 x(14) +17 x(15) +12 x(16) +6 x(17) +14 x(18) +16 x(19) +19 x(20)  <=  65
c3:+7 x(1) +7 x(2) +4 x(3) +17 x(4) +1 x(5) +8 x(6) +6 x(7) +6 x(8) +16 x(9) +3 x(10) +18 x(11) +15 x(12) +16 x(13) +14 x(14) +6 x(15) +18 x(16) +5 x(17) +3 x(18) +9 x(19) +6 x(20)  <=  98
c4:+6 x(1) +6 x(2) +9 x(3) +3 x(4) +15 x(5) +6 x(6) +15 x(7) +10 x(8) +15 x(9) +16 x(10) +6 x(11) +11 x(12) +18 x(13) +2 x(14) +9 x(15) +5 x(16) +17 x(17) +14 x(18) +11 x(19) +18 x(20)  <=  85
c5:+12 x(1) +18 x(2) +13 x(3) +6 x(4) +8 x(5) +4 x(6) +3 x(7) +17 x(8) +16 x(9) +19 x(10) +12 x(11) +7 x(12) +15 x(13) +18 x(14) +12 x(15) +1 x(16) +10 x(17) +3 x(18) +19 x(19) +19 x(20)  <=  60
c6:+4 x(1) +5 x(2) +19 x(3) +16 x(4) +1 x(5) +13 x(6) +16 x(7) +12 x(8) +16 x(9) +1 x(10) +1 x(11) +16 x(12) +9 x(13) +19 x(14) +9 x(15) +18 x(16) +4 x(17) +19 x(18) +18 x(19) +7 x(20)  <=  78
c7:+14 x(1) +3 x(2) +11 x(3) +5 x(4) +9 x(5) +7 x(6) +16 x(7) +11 x(8) +17 x(9) +14 x(10) +4 x(11) +17 x(12) +13 x(13) +2 x(14) +2 x(15) +5 x(16) +5 x(17) +18 x(18) +11 x(19) +2 x(20)  <=  94
c8:+2 x(1) +11 x(2) +13 x(3) +1 x(4) +15 x(5) +20 x(6) +11 x(7) +7 x(8) +16 x(9) +14 x(10) +17 x(11) +6 x(12) +13 x(13) +17 x(14) +15 x(15) +5 x(16) +14 x(17) +11 x(18) +19 x(19) +16 x(20)  <=  78
c9:+1 x(1) +19 x(2) +14 x(3) +9 x(4) +19 x(5) +10 x(6) +6 x(7) +9 x(8) +20 x(9) +6 x(10) +4 x(11) +11 x(12) +3 x(13) +19 x(14) +1 x(15) +13 x(16) +12 x(17) +14 x(18) +2 x(19) +2 x(20)  <=  88
c10:+6 x(1) +9 x(2) +19 x(3) +19 x(4) +20 x(5) +15 x(6) +2 x(7) +16 x(8) +3 x(9) +17 x(10) +17 x(11) +9 x(12) +10 x(13) +1 x(14) +9 x(15) +7 x(16) +6 x(17) +20 x(18) +17 x(19) +15 x(20)  <=  95
c11:+2 x(1) +5 x(2) +4 x(3) +6 x(4) +20 x(5) +1 x(6) +13 x(7) +7 x(8) +8 x(9) +6 x(10) +7 x(11) +4 x(12) +7 x(13) +11 x(14) +1 x(15) +17 x(16) +13 x(17) +3 x(18) +7 x(19) +9 x(20)  <=  92
c12:+19 x(1) +2 x(2) +9 x(3) +12 x(4) +18 x(5) +13 x(6) +1 x(7) +10 x(8) +10 x(9) +1 x(10) +14 x(11) +13 x(12) +12 x(13) +14 x(14) +20 x(15) +18 x(16) +15 x(17) +16 x(18) +5 x(19) +14 x(20)  <=  56
c13:+17 x(1) +19 x(2) +7 x(3) +8 x(4) +18 x(5) +12 x(6) +2 x(7) +8 x(8) +6 x(9) +2 x(10) +2 x(11) +19 x(12) +19 x(13) +8 x(14) +11 x(15) +19 x(16) +6 x(17) +17 x(18) +17 x(19) +4 x(20)  <=  59
c14:+8 x(1) +13 x(2) +14 x(3) +1 x(4) +17 x(5) +17 x(6) +3 x(7) +14 x(8) +1 x(9) +16 x(10) +15 x(11) +3 x(12) +9 x(13) +13 x(14) +19 x(15) +8 x(16) +9 x(17) +16 x(18) +7 x(19) +11 x(20)  <=  57
c15:+4 x(1) +8 x(2) +18 x(3) +11 x(4) +12 x(5) +14 x(6) +10 x(7) +12 x(8) +20 x(9) +15 x(10) +10 x(11) +18 x(12) +1 x(13) +16 x(14) +8 x(15) +17 x(16) +8 x(17) +4 x(18) +4 x(19) +13 x(20)  <=  51
c16:+9 x(1) +14 x(2) +10 x(3) +17 x(4) +9 x(5) +18 x(6) +14 x(7) +14 x(8) +15 x(9) +16 x(10) +19 x(11) +12 x(12) +19 x(13) +12 x(14) +18 x(15) +4 x(16) +16 x(17) +9 x(18) +1 x(19) +1 x(20)  <=  50
c17:+9 x(1) +16 x(2) +17 x(3) +6 x(4) +3 x(5) +19 x(6) +18 x(7) +10 x(8) +3 x(9) +13 x(10) +6 x(11) +9 x(12) +19 x(13) +13 x(14) +6 x(15) +13 x(16) +3 x(17) +1 x(18) +20 x(19) +10 x(20)  <=  80
c18:+15 x(1) +7 x(2) +7 x(3) +1 x(4) +14 x(5) +4 x(6) +10 x(7) +8 x(8) +3 x(9) +17 x(10) +8 x(11) +4 x(12) +8 x(13) +6 x(14) +19 x(15) +14 x(16) +19 x(17) +7 x(18) +14 x(19) +18 x(20)  <=  81
c19:+9 x(1) +14 x(2) +11 x(3) +5 x(4) +18 x(5) +4 x(6) +1 x(7) +10 x(8) +15 x(9) +1 x(10) +3 x(11) +5 x(12) +6 x(13) +17 x(14) +18 x(15) +2 x(16) +6 x(17) +3 x(18) +18 x(19) +3 x(20)  <=  96
c20:+20 x(1) +5 x(2) +8 x(3) +14 x(4) +6 x(5) +16 x(6) +7 x(7) +2 x(8) +8 x(9) +9 x(10) +20 x(11) +9 x(12) +16 x(13) +9 x(14) +8 x(15) +11 x(16) +10 x(17) +10 x(18) +19 x(19) +9 x(20)  <=  87
obj2:-13 x(1) +8 x(2) -13 x(3) +1 x(4) -8 x(5) -2 x(6) +17 x(7) -12 x(8) -20 x(9) +17 x(10) +7 x(11) +1 x(12) +1 x(13) -16 x(14) +20 x(15) -6 x(16) +5 x(17) -4 x(18) -20 x(19) +2 x(20)  <=  0
Binaries
x(1) x(2) x(3) x(4) x(5) x(6) x(7) x(8) x(9) x(10) x(11) x(12) x(13) x(14) x(15) x(16) x(17) x(18) x(19) x(20)
End
